c Path planning problem for ProbSAT
c Generated by gen_cnf.py
p cnf 72 87
1 2 3 4 5 6 7 8 0
9 10 11 12 13 14 15 16 0
17 18 19 20 21 22 23 24 0
25 26 27 28 29 30 31 32 0
33 34 35 36 37 38 39 40 0
41 42 43 44 45 46 47 48 0
49 50 51 52 53 54 55 56 0
57 58 59 60 61 62 63 64 0
65 66 67 68 69 70 71 72 0
-1 9 12 10 0
-2 10 11 9 0
-3 11 13 10 0
-4 12 14 9 0
-5 13 16 11 0
-6 14 12 15 0
-7 15 16 14 0
-8 16 13 15 0
-9 17 20 18 0
-10 18 19 17 0
-11 19 21 18 0
-12 20 22 17 0
-13 21 24 19 0
-14 22 20 23 0
-15 23 24 22 0
-16 24 21 23 0
-17 25 28 26 0
-18 26 27 25 0
-19 27 29 26 0
-20 28 30 25 0
-21 29 32 27 0
-22 30 28 31 0
-23 31 32 30 0
-24 32 29 31 0
-25 33 36 34 0
-26 34 35 33 0
-27 35 37 34 0
-28 36 38 33 0
-29 37 40 35 0
-30 38 36 39 0
-31 39 40 38 0
-32 40 37 39 0
-33 41 44 42 0
-34 42 43 41 0
-35 43 45 42 0
-36 44 46 41 0
-37 45 48 43 0
-38 46 44 47 0
-39 47 48 46 0
-40 48 45 47 0
-41 49 52 50 0
-42 50 51 49 0
-43 51 53 50 0
-44 52 54 49 0
-45 53 56 51 0
-46 54 52 55 0
-47 55 56 54 0
-48 56 53 55 0
-49 57 60 58 0
-50 58 59 57 0
-51 59 61 58 0
-52 60 62 57 0
-53 61 64 59 0
-54 62 60 63 0
-55 63 64 62 0
-56 64 61 63 0
-57 65 68 66 0
-58 66 67 65 0
-59 67 69 66 0
-60 68 70 65 0
-61 69 72 67 0
-62 70 68 71 0
-63 71 72 70 0
-64 72 69 71 0
1 0
-2 0
-7 0
-3 0
-5 0
-8 0
72 0
-65 0
-68 0
-70 0
-66 0
-71 0
-67 0
-69 0
